p cnf 344 1225
c p weight 34 -1 0
c p weight -34 1 0
c p weight 36 6.12323399573676603586882014729198302312846062338790031898128063403419218957424163818359375E-17 0
c p weight -36 1 0
c p weight 37 1 0
c p weight -37 1 0
c p weight 38 -1 0
c p weight -38 1 0
c p weight 40 -1 0
c p weight -40 1 0
c p weight 41 -1 0
c p weight -41 1 0
c p weight 43 -1 0
c p weight -43 1 0
c p weight 45 6.12323399573676603586882014729198302312846062338790031898128063403419218957424163818359375E-17 0
c p weight -45 1 0
c p weight 46 1 0
c p weight -46 1 0
c p weight 47 -1 0
c p weight -47 1 0
c p weight 49 -1 0
c p weight -49 1 0
c p weight 50 -1 0
c p weight -50 1 0
c p weight 52 -1 0
c p weight -52 1 0
c p weight 54 6.12323399573676603586882014729198302312846062338790031898128063403419218957424163818359375E-17 0
c p weight -54 1 0
c p weight 55 1 0
c p weight -55 1 0
c p weight 56 -1 0
c p weight -56 1 0
c p weight 58 -1 0
c p weight -58 1 0
c p weight 60 -1 0
c p weight -60 1 0
c p weight 62 6.12323399573676603586882014729198302312846062338790031898128063403419218957424163818359375E-17 0
c p weight -62 1 0
c p weight 63 1 0
c p weight -63 1 0
c p weight 64 -1 0
c p weight -64 1 0
c p weight 66 -1 0
c p weight -66 1 0
c p weight 67 -1 0
c p weight -67 1 0
c p weight 69 -1 0
c p weight -69 1 0
c p weight 71 6.12323399573676603586882014729198302312846062338790031898128063403419218957424163818359375E-17 0
c p weight -71 1 0
c p weight 72 1 0
c p weight -72 1 0
c p weight 73 -1 0
c p weight -73 1 0
c p weight 75 -1 0
c p weight -75 1 0
c p weight 77 -1 0
c p weight -77 1 0
c p weight 79 6.12323399573676603586882014729198302312846062338790031898128063403419218957424163818359375E-17 0
c p weight -79 1 0
c p weight 80 1 0
c p weight -80 1 0
c p weight 81 -1 0
c p weight -81 1 0
c p weight 83 -1 0
c p weight -83 1 0
c p weight 84 -1 0
c p weight -84 1 0
c p weight 86 -1 0
c p weight -86 1 0
c p weight 88 6.12323399573676603586882014729198302312846062338790031898128063403419218957424163818359375E-17 0
c p weight -88 1 0
c p weight 89 1 0
c p weight -89 1 0
c p weight 90 -1 0
c p weight -90 1 0
c p weight 92 -1 0
c p weight -92 1 0
c p weight 93 -1 0
c p weight -93 1 0
c p weight 95 -1 0
c p weight -95 1 0
c p weight 97 6.12323399573676603586882014729198302312846062338790031898128063403419218957424163818359375E-17 0
c p weight -97 1 0
c p weight 98 1 0
c p weight -98 1 0
c p weight 99 -1 0
c p weight -99 1 0
c p weight 101 -1 0
c p weight -101 1 0
c p weight 103 -1 0
c p weight -103 1 0
c p weight 105 6.12323399573676603586882014729198302312846062338790031898128063403419218957424163818359375E-17 0
c p weight -105 1 0
c p weight 106 1 0
c p weight -106 1 0
c p weight 107 -1 0
c p weight -107 1 0
c p weight 109 -1 0
c p weight -109 1 0
c p weight 110 -1 0
c p weight -110 1 0
c p weight 112 -1 0
c p weight -112 1 0
c p weight 114 6.12323399573676603586882014729198302312846062338790031898128063403419218957424163818359375E-17 0
c p weight -114 1 0
c p weight 115 1 0
c p weight -115 1 0
c p weight 116 -1 0
c p weight -116 1 0
c p weight 118 -1 0
c p weight -118 1 0
c p weight 119 -1 0
c p weight -119 1 0
c p weight 121 -1 0
c p weight -121 1 0
c p weight 123 6.12323399573676603586882014729198302312846062338790031898128063403419218957424163818359375E-17 0
c p weight -123 1 0
c p weight 124 1 0
c p weight -124 1 0
c p weight 125 -1 0
c p weight -125 1 0
c p weight 127 -1 0
c p weight -127 1 0
c p weight 129 -1 0
c p weight -129 1 0
c p weight 131 6.12323399573676603586882014729198302312846062338790031898128063403419218957424163818359375E-17 0
c p weight -131 1 0
c p weight 132 1 0
c p weight -132 1 0
c p weight 133 -1 0
c p weight -133 1 0
c p weight 135 -1 0
c p weight -135 1 0
c p weight 136 -1 0
c p weight -136 1 0
c p weight 138 -1 0
c p weight -138 1 0
c p weight 140 6.12323399573676603586882014729198302312846062338790031898128063403419218957424163818359375E-17 0
c p weight -140 1 0
c p weight 141 1 0
c p weight -141 1 0
c p weight 142 -1 0
c p weight -142 1 0
c p weight 144 -1 0
c p weight -144 1 0
c p weight 145 -1 0
c p weight -145 1 0
c p weight 147 -1 0
c p weight -147 1 0
c p weight 149 6.12323399573676603586882014729198302312846062338790031898128063403419218957424163818359375E-17 0
c p weight -149 1 0
c p weight 150 1 0
c p weight -150 1 0
c p weight 151 -1 0
c p weight -151 1 0
c p weight 153 -1 0
c p weight -153 1 0
c p weight 155 -1 0
c p weight -155 1 0
c p weight 157 6.12323399573676603586882014729198302312846062338790031898128063403419218957424163818359375E-17 0
c p weight -157 1 0
c p weight 158 1 0
c p weight -158 1 0
c p weight 159 -1 0
c p weight -159 1 0
c p weight 161 -1 0
c p weight -161 1 0
c p weight 162 -1 0
c p weight -162 1 0
c p weight 164 -1 0
c p weight -164 1 0
c p weight 166 6.12323399573676603586882014729198302312846062338790031898128063403419218957424163818359375E-17 0
c p weight -166 1 0
c p weight 167 1 0
c p weight -167 1 0
c p weight 168 -1 0
c p weight -168 1 0
c p weight 170 -1 0
c p weight -170 1 0
c p weight 173 -1 0
c p weight -173 1 0
c p weight 174 -1 0
c p weight -174 1 0
c p weight 176 -1 0
c p weight -176 1 0
c p weight 178 6.12323399573676603586882014729198302312846062338790031898128063403419218957424163818359375E-17 0
c p weight -178 1 0
c p weight 179 1 0
c p weight -179 1 0
c p weight 180 -1 0
c p weight -180 1 0
c p weight 182 -1 0
c p weight -182 1 0
c p weight 185 -1 0
c p weight -185 1 0
c p weight 186 -1 0
c p weight -186 1 0
c p weight 188 -1 0
c p weight -188 1 0
c p weight 190 6.12323399573676603586882014729198302312846062338790031898128063403419218957424163818359375E-17 0
c p weight -190 1 0
c p weight 191 1 0
c p weight -191 1 0
c p weight 192 -1 0
c p weight -192 1 0
c p weight 194 -1 0
c p weight -194 1 0
c p weight 197 -1 0
c p weight -197 1 0
c p weight 199 -1 0
c p weight -199 1 0
c p weight 201 6.12323399573676603586882014729198302312846062338790031898128063403419218957424163818359375E-17 0
c p weight -201 1 0
c p weight 202 1 0
c p weight -202 1 0
c p weight 203 -1 0
c p weight -203 1 0
c p weight 205 -1 0
c p weight -205 1 0
c p weight 208 -1 0
c p weight -208 1 0
c p weight 209 -1 0
c p weight -209 1 0
c p weight 211 -1 0
c p weight -211 1 0
c p weight 213 6.12323399573676603586882014729198302312846062338790031898128063403419218957424163818359375E-17 0
c p weight -213 1 0
c p weight 214 1 0
c p weight -214 1 0
c p weight 215 -1 0
c p weight -215 1 0
c p weight 217 -1 0
c p weight -217 1 0
c p weight 220 -1 0
c p weight -220 1 0
c p weight 222 -1 0
c p weight -222 1 0
c p weight 224 6.12323399573676603586882014729198302312846062338790031898128063403419218957424163818359375E-17 0
c p weight -224 1 0
c p weight 225 1 0
c p weight -225 1 0
c p weight 226 -1 0
c p weight -226 1 0
c p weight 228 -1 0
c p weight -228 1 0
c p weight 231 -1 0
c p weight -231 1 0
c p weight 232 -1 0
c p weight -232 1 0
c p weight 234 -1 0
c p weight -234 1 0
c p weight 236 6.12323399573676603586882014729198302312846062338790031898128063403419218957424163818359375E-17 0
c p weight -236 1 0
c p weight 237 1 0
c p weight -237 1 0
c p weight 238 -1 0
c p weight -238 1 0
c p weight 240 -1 0
c p weight -240 1 0
c p weight 243 -1 0
c p weight -243 1 0
c p weight 244 -1 0
c p weight -244 1 0
c p weight 246 -1 0
c p weight -246 1 0
c p weight 248 6.12323399573676603586882014729198302312846062338790031898128063403419218957424163818359375E-17 0
c p weight -248 1 0
c p weight 249 1 0
c p weight -249 1 0
c p weight 250 -1 0
c p weight -250 1 0
c p weight 252 -1 0
c p weight -252 1 0
c p weight 255 -1 0
c p weight -255 1 0
c p weight 257 -1 0
c p weight -257 1 0
c p weight 259 6.12323399573676603586882014729198302312846062338790031898128063403419218957424163818359375E-17 0
c p weight -259 1 0
c p weight 260 1 0
c p weight -260 1 0
c p weight 261 -1 0
c p weight -261 1 0
c p weight 263 -1 0
c p weight -263 1 0
c p weight 266 -1 0
c p weight -266 1 0
c p weight 267 -1 0
c p weight -267 1 0
c p weight 269 -1 0
c p weight -269 1 0
c p weight 271 6.12323399573676603586882014729198302312846062338790031898128063403419218957424163818359375E-17 0
c p weight -271 1 0
c p weight 272 1 0
c p weight -272 1 0
c p weight 273 -1 0
c p weight -273 1 0
c p weight 275 -1 0
c p weight -275 1 0
c p weight 278 -1 0
c p weight -278 1 0
c p weight 279 -1 0
c p weight -279 1 0
c p weight 281 -1 0
c p weight -281 1 0
c p weight 283 6.12323399573676603586882014729198302312846062338790031898128063403419218957424163818359375E-17 0
c p weight -283 1 0
c p weight 284 1 0
c p weight -284 1 0
c p weight 285 -1 0
c p weight -285 1 0
c p weight 287 -1 0
c p weight -287 1 0
c p weight 290 -1 0
c p weight -290 1 0
c p weight 292 -1 0
c p weight -292 1 0
c p weight 294 6.12323399573676603586882014729198302312846062338790031898128063403419218957424163818359375E-17 0
c p weight -294 1 0
c p weight 295 1 0
c p weight -295 1 0
c p weight 296 -1 0
c p weight -296 1 0
c p weight 298 -1 0
c p weight -298 1 0
c p weight 301 -1 0
c p weight -301 1 0
c p weight 302 -1 0
c p weight -302 1 0
c p weight 304 -1 0
c p weight -304 1 0
c p weight 306 6.12323399573676603586882014729198302312846062338790031898128063403419218957424163818359375E-17 0
c p weight -306 1 0
c p weight 307 1 0
c p weight -307 1 0
c p weight 308 -1 0
c p weight -308 1 0
c p weight 310 -1 0
c p weight -310 1 0
c p weight 313 -1 0
c p weight -313 1 0
c p weight 314 -1 0
c p weight -314 1 0
c p weight 316 -1 0
c p weight -316 1 0
c p weight 318 6.12323399573676603586882014729198302312846062338790031898128063403419218957424163818359375E-17 0
c p weight -318 1 0
c p weight 319 1 0
c p weight -319 1 0
c p weight 320 -1 0
c p weight -320 1 0
c p weight 322 -1 0
c p weight -322 1 0
c p weight 325 -1 0
c p weight -325 1 0
c p weight 327 -1 0
c p weight -327 1 0
c p weight 329 6.12323399573676603586882014729198302312846062338790031898128063403419218957424163818359375E-17 0
c p weight -329 1 0
c p weight 330 1 0
c p weight -330 1 0
c p weight 331 -1 0
c p weight -331 1 0
c p weight 333 -1 0
c p weight -333 1 0
c p weight 336 -1 0
c p weight -336 1 0
c p weight 338 -1 0
c p weight -338 1 0
c p weight 340 6.12323399573676603586882014729198302312846062338790031898128063403419218957424163818359375E-17 0
c p weight -340 1 0
c p weight 341 1 0
c p weight -341 1 0
c p weight 342 -1 0
c p weight -342 1 0
c p weight 344 -1 0
c p weight -344 1 0
-31 0
-29 0
-27 0
-25 0
-23 0
-21 0
-19 0
-17 0
-15 0
-13 0
-11 0
-9 0
-7 0
-5 0
-3 0
-1 0
33 1 -2 0
33 -1 2 0
-33 1 2 0
-33 -1 -2 0
-34 1 0
-34 2 0
34 -1 -2 0
35 -1 33 0
-35 1 33 0
-36 33 0
35 -36 -1 0
-35 -36 1 0
35 36 1 -33 0
-35 36 -1 -33 0
-37 33 0
35 -37 1 0
-35 -37 -1 0
35 37 -1 -33 0
-35 37 1 -33 0
-38 35 0
-38 33 0
-38 -1 0
38 -35 1 -33 0
39 35 -33 0
39 -35 33 0
-39 35 33 0
-39 -35 -33 0
-40 35 0
-40 33 0
40 -35 -33 0
41 -39 0
-41 39 0
42 3 -4 0
42 -3 4 0
-42 3 4 0
-42 -3 -4 0
-43 3 0
-43 4 0
43 -3 -4 0
44 -3 42 0
-44 3 42 0
-45 42 0
44 -45 -3 0
-44 -45 3 0
44 45 3 -42 0
-44 45 -3 -42 0
-46 42 0
44 -46 3 0
-44 -46 -3 0
44 46 -3 -42 0
-44 46 3 -42 0
-47 44 0
-47 42 0
-47 -3 0
47 -44 3 -42 0
48 44 -42 0
48 -44 42 0
-48 44 42 0
-48 -44 -42 0
-49 44 0
-49 42 0
49 -44 -42 0
50 -48 0
-50 48 0
51 5 -6 0
51 -5 6 0
-51 5 6 0
-51 -5 -6 0
-52 5 0
-52 6 0
52 -5 -6 0
53 -5 51 0
-53 5 51 0
-54 51 0
53 -54 -5 0
-53 -54 5 0
53 54 5 -51 0
-53 54 -5 -51 0
-55 51 0
53 -55 5 0
-53 -55 -5 0
53 55 -5 -51 0
-53 55 5 -51 0
-56 53 0
-56 51 0
-56 -5 0
56 -53 5 -51 0
57 53 -51 0
57 -53 51 0
-57 53 51 0
-57 -53 -51 0
-58 53 0
-58 51 0
58 -53 -51 0
59 7 -8 0
59 -7 8 0
-59 7 8 0
-59 -7 -8 0
-60 7 0
-60 8 0
60 -7 -8 0
61 -7 59 0
-61 7 59 0
-62 59 0
61 -62 -7 0
-61 -62 7 0
61 62 7 -59 0
-61 62 -7 -59 0
-63 59 0
61 -63 7 0
-61 -63 -7 0
61 63 -7 -59 0
-61 63 7 -59 0
-64 61 0
-64 59 0
-64 -7 0
64 -61 7 -59 0
65 61 -59 0
65 -61 59 0
-65 61 59 0
-65 -61 -59 0
-66 61 0
-66 59 0
66 -61 -59 0
67 -65 0
-67 65 0
68 9 -10 0
68 -9 10 0
-68 9 10 0
-68 -9 -10 0
-69 9 0
-69 10 0
69 -9 -10 0
70 -9 68 0
-70 9 68 0
-71 68 0
70 -71 -9 0
-70 -71 9 0
70 71 9 -68 0
-70 71 -9 -68 0
-72 68 0
70 -72 9 0
-70 -72 -9 0
70 72 -9 -68 0
-70 72 9 -68 0
-73 70 0
-73 68 0
-73 -9 0
73 -70 9 -68 0
74 70 -68 0
74 -70 68 0
-74 70 68 0
-74 -70 -68 0
-75 70 0
-75 68 0
75 -70 -68 0
76 11 -12 0
76 -11 12 0
-76 11 12 0
-76 -11 -12 0
-77 11 0
-77 12 0
77 -11 -12 0
78 -11 76 0
-78 11 76 0
-79 76 0
78 -79 -11 0
-78 -79 11 0
78 79 11 -76 0
-78 79 -11 -76 0
-80 76 0
78 -80 11 0
-78 -80 -11 0
78 80 -11 -76 0
-78 80 11 -76 0
-81 78 0
-81 76 0
-81 -11 0
81 -78 11 -76 0
82 78 -76 0
82 -78 76 0
-82 78 76 0
-82 -78 -76 0
-83 78 0
-83 76 0
83 -78 -76 0
84 -82 0
-84 82 0
85 13 -14 0
85 -13 14 0
-85 13 14 0
-85 -13 -14 0
-86 13 0
-86 14 0
86 -13 -14 0
87 -13 85 0
-87 13 85 0
-88 85 0
87 -88 -13 0
-87 -88 13 0
87 88 13 -85 0
-87 88 -13 -85 0
-89 85 0
87 -89 13 0
-87 -89 -13 0
87 89 -13 -85 0
-87 89 13 -85 0
-90 87 0
-90 85 0
-90 -13 0
90 -87 13 -85 0
91 87 -85 0
91 -87 85 0
-91 87 85 0
-91 -87 -85 0
-92 87 0
-92 85 0
92 -87 -85 0
93 -91 0
-93 91 0
94 15 -16 0
94 -15 16 0
-94 15 16 0
-94 -15 -16 0
-95 15 0
-95 16 0
95 -15 -16 0
96 -15 94 0
-96 15 94 0
-97 94 0
96 -97 -15 0
-96 -97 15 0
96 97 15 -94 0
-96 97 -15 -94 0
-98 94 0
96 -98 15 0
-96 -98 -15 0
96 98 -15 -94 0
-96 98 15 -94 0
-99 96 0
-99 94 0
-99 -15 0
99 -96 15 -94 0
100 96 -94 0
100 -96 94 0
-100 96 94 0
-100 -96 -94 0
-101 96 0
-101 94 0
101 -96 -94 0
102 17 -18 0
102 -17 18 0
-102 17 18 0
-102 -17 -18 0
-103 17 0
-103 18 0
103 -17 -18 0
104 -17 102 0
-104 17 102 0
-105 102 0
104 -105 -17 0
-104 -105 17 0
104 105 17 -102 0
-104 105 -17 -102 0
-106 102 0
104 -106 17 0
-104 -106 -17 0
104 106 -17 -102 0
-104 106 17 -102 0
-107 104 0
-107 102 0
-107 -17 0
107 -104 17 -102 0
108 104 -102 0
108 -104 102 0
-108 104 102 0
-108 -104 -102 0
-109 104 0
-109 102 0
109 -104 -102 0
110 -108 0
-110 108 0
111 19 -20 0
111 -19 20 0
-111 19 20 0
-111 -19 -20 0
-112 19 0
-112 20 0
112 -19 -20 0
113 -19 111 0
-113 19 111 0
-114 111 0
113 -114 -19 0
-113 -114 19 0
113 114 19 -111 0
-113 114 -19 -111 0
-115 111 0
113 -115 19 0
-113 -115 -19 0
113 115 -19 -111 0
-113 115 19 -111 0
-116 113 0
-116 111 0
-116 -19 0
116 -113 19 -111 0
117 113 -111 0
117 -113 111 0
-117 113 111 0
-117 -113 -111 0
-118 113 0
-118 111 0
118 -113 -111 0
119 -117 0
-119 117 0
120 21 -22 0
120 -21 22 0
-120 21 22 0
-120 -21 -22 0
-121 21 0
-121 22 0
121 -21 -22 0
122 -21 120 0
-122 21 120 0
-123 120 0
122 -123 -21 0
-122 -123 21 0
122 123 21 -120 0
-122 123 -21 -120 0
-124 120 0
122 -124 21 0
-122 -124 -21 0
122 124 -21 -120 0
-122 124 21 -120 0
-125 122 0
-125 120 0
-125 -21 0
125 -122 21 -120 0
126 122 -120 0
126 -122 120 0
-126 122 120 0
-126 -122 -120 0
-127 122 0
-127 120 0
127 -122 -120 0
128 23 -24 0
128 -23 24 0
-128 23 24 0
-128 -23 -24 0
-129 23 0
-129 24 0
129 -23 -24 0
130 -23 128 0
-130 23 128 0
-131 128 0
130 -131 -23 0
-130 -131 23 0
130 131 23 -128 0
-130 131 -23 -128 0
-132 128 0
130 -132 23 0
-130 -132 -23 0
130 132 -23 -128 0
-130 132 23 -128 0
-133 130 0
-133 128 0
-133 -23 0
133 -130 23 -128 0
134 130 -128 0
134 -130 128 0
-134 130 128 0
-134 -130 -128 0
-135 130 0
-135 128 0
135 -130 -128 0
136 -134 0
-136 134 0
137 25 -26 0
137 -25 26 0
-137 25 26 0
-137 -25 -26 0
-138 25 0
-138 26 0
138 -25 -26 0
139 -25 137 0
-139 25 137 0
-140 137 0
139 -140 -25 0
-139 -140 25 0
139 140 25 -137 0
-139 140 -25 -137 0
-141 137 0
139 -141 25 0
-139 -141 -25 0
139 141 -25 -137 0
-139 141 25 -137 0
-142 139 0
-142 137 0
-142 -25 0
142 -139 25 -137 0
143 139 -137 0
143 -139 137 0
-143 139 137 0
-143 -139 -137 0
-144 139 0
-144 137 0
144 -139 -137 0
145 -143 0
-145 143 0
146 27 -28 0
146 -27 28 0
-146 27 28 0
-146 -27 -28 0
-147 27 0
-147 28 0
147 -27 -28 0
148 -27 146 0
-148 27 146 0
-149 146 0
148 -149 -27 0
-148 -149 27 0
148 149 27 -146 0
-148 149 -27 -146 0
-150 146 0
148 -150 27 0
-148 -150 -27 0
148 150 -27 -146 0
-148 150 27 -146 0
-151 148 0
-151 146 0
-151 -27 0
151 -148 27 -146 0
152 148 -146 0
152 -148 146 0
-152 148 146 0
-152 -148 -146 0
-153 148 0
-153 146 0
153 -148 -146 0
154 29 -30 0
154 -29 30 0
-154 29 30 0
-154 -29 -30 0
-155 29 0
-155 30 0
155 -29 -30 0
156 -29 154 0
-156 29 154 0
-157 154 0
156 -157 -29 0
-156 -157 29 0
156 157 29 -154 0
-156 157 -29 -154 0
-158 154 0
156 -158 29 0
-156 -158 -29 0
156 158 -29 -154 0
-156 158 29 -154 0
-159 156 0
-159 154 0
-159 -29 0
159 -156 29 -154 0
160 156 -154 0
160 -156 154 0
-160 156 154 0
-160 -156 -154 0
-161 156 0
-161 154 0
161 -156 -154 0
162 -32 0
-162 32 0
163 31 -32 0
163 -31 32 0
-163 31 32 0
-163 -31 -32 0
-164 31 0
-164 32 0
164 -31 -32 0
165 -31 163 0
-165 31 163 0
-166 163 0
165 -166 -31 0
-165 -166 31 0
165 166 31 -163 0
-165 166 -31 -163 0
-167 163 0
165 -167 31 0
-165 -167 -31 0
165 167 -31 -163 0
-165 167 31 -163 0
-168 165 0
-168 163 0
-168 -31 0
168 -165 31 -163 0
169 165 -163 0
169 -165 163 0
-169 165 163 0
-169 -165 -163 0
-170 165 0
-170 163 0
170 -165 -163 0
171 35 -165 0
171 -35 165 0
-171 35 165 0
-171 -35 -165 0
172 39 -169 0
172 -39 169 0
-172 39 169 0
-172 -39 -169 0
-173 35 0
-173 169 0
-173 165 -39 0
-173 -165 39 0
173 -35 165 39 -169 0
173 -35 -165 -39 -169 0
174 -172 0
-174 172 0
175 35 -172 0
175 -35 172 0
-175 35 172 0
-175 -35 -172 0
-176 35 0
-176 172 0
176 -35 -172 0
177 -35 175 0
-177 35 175 0
-178 175 0
177 -178 -35 0
-177 -178 35 0
177 178 35 -175 0
-177 178 -35 -175 0
-179 175 0
177 -179 35 0
-177 -179 -35 0
177 179 -35 -175 0
-177 179 35 -175 0
-180 177 0
-180 175 0
-180 -35 0
180 -177 35 -175 0
181 177 -175 0
181 -177 175 0
-181 177 175 0
-181 -177 -175 0
-182 177 0
-182 175 0
182 -177 -175 0
183 44 -171 0
183 -44 171 0
-183 44 171 0
-183 -44 -171 0
184 48 -169 0
184 -48 169 0
-184 48 169 0
-184 -48 -169 0
-185 44 0
-185 169 0
-185 171 -48 0
-185 -171 48 0
185 -44 171 48 -169 0
185 -44 -171 -48 -169 0
186 -184 0
-186 184 0
187 44 -184 0
187 -44 184 0
-187 44 184 0
-187 -44 -184 0
-188 44 0
-188 184 0
188 -44 -184 0
189 -44 187 0
-189 44 187 0
-190 187 0
189 -190 -44 0
-189 -190 44 0
189 190 44 -187 0
-189 190 -44 -187 0
-191 187 0
189 -191 44 0
-189 -191 -44 0
189 191 -44 -187 0
-189 191 44 -187 0
-192 189 0
-192 187 0
-192 -44 0
192 -189 44 -187 0
193 189 -187 0
193 -189 187 0
-193 189 187 0
-193 -189 -187 0
-194 189 0
-194 187 0
194 -189 -187 0
195 53 -183 0
195 -53 183 0
-195 53 183 0
-195 -53 -183 0
196 57 -169 0
196 -57 169 0
-196 57 169 0
-196 -57 -169 0
-197 53 0
-197 169 0
-197 183 -57 0
-197 -183 57 0
197 -53 183 57 -169 0
197 -53 -183 -57 -169 0
198 53 -196 0
198 -53 196 0
-198 53 196 0
-198 -53 -196 0
-199 53 0
-199 196 0
199 -53 -196 0
200 -53 198 0
-200 53 198 0
-201 198 0
200 -201 -53 0
-200 -201 53 0
200 201 53 -198 0
-200 201 -53 -198 0
-202 198 0
200 -202 53 0
-200 -202 -53 0
200 202 -53 -198 0
-200 202 53 -198 0
-203 200 0
-203 198 0
-203 -53 0
203 -200 53 -198 0
204 200 -198 0
204 -200 198 0
-204 200 198 0
-204 -200 -198 0
-205 200 0
-205 198 0
205 -200 -198 0
206 61 -195 0
206 -61 195 0
-206 61 195 0
-206 -61 -195 0
207 65 -169 0
207 -65 169 0
-207 65 169 0
-207 -65 -169 0
-208 61 0
-208 169 0
-208 195 -65 0
-208 -195 65 0
208 -61 195 65 -169 0
208 -61 -195 -65 -169 0
209 -207 0
-209 207 0
210 61 -207 0
210 -61 207 0
-210 61 207 0
-210 -61 -207 0
-211 61 0
-211 207 0
211 -61 -207 0
212 -61 210 0
-212 61 210 0
-213 210 0
212 -213 -61 0
-212 -213 61 0
212 213 61 -210 0
-212 213 -61 -210 0
-214 210 0
212 -214 61 0
-212 -214 -61 0
212 214 -61 -210 0
-212 214 61 -210 0
-215 212 0
-215 210 0
-215 -61 0
215 -212 61 -210 0
216 212 -210 0
216 -212 210 0
-216 212 210 0
-216 -212 -210 0
-217 212 0
-217 210 0
217 -212 -210 0
218 70 -206 0
218 -70 206 0
-218 70 206 0
-218 -70 -206 0
219 74 -169 0
219 -74 169 0
-219 74 169 0
-219 -74 -169 0
-220 70 0
-220 169 0
-220 206 -74 0
-220 -206 74 0
220 -70 206 74 -169 0
220 -70 -206 -74 -169 0
221 70 -219 0
221 -70 219 0
-221 70 219 0
-221 -70 -219 0
-222 70 0
-222 219 0
222 -70 -219 0
223 -70 221 0
-223 70 221 0
-224 221 0
223 -224 -70 0
-223 -224 70 0
223 224 70 -221 0
-223 224 -70 -221 0
-225 221 0
223 -225 70 0
-223 -225 -70 0
223 225 -70 -221 0
-223 225 70 -221 0
-226 223 0
-226 221 0
-226 -70 0
226 -223 70 -221 0
227 223 -221 0
227 -223 221 0
-227 223 221 0
-227 -223 -221 0
-228 223 0
-228 221 0
228 -223 -221 0
229 78 -218 0
229 -78 218 0
-229 78 218 0
-229 -78 -218 0
230 82 -169 0
230 -82 169 0
-230 82 169 0
-230 -82 -169 0
-231 78 0
-231 169 0
-231 218 -82 0
-231 -218 82 0
231 -78 218 82 -169 0
231 -78 -218 -82 -169 0
232 -230 0
-232 230 0
233 78 -230 0
233 -78 230 0
-233 78 230 0
-233 -78 -230 0
-234 78 0
-234 230 0
234 -78 -230 0
235 -78 233 0
-235 78 233 0
-236 233 0
235 -236 -78 0
-235 -236 78 0
235 236 78 -233 0
-235 236 -78 -233 0
-237 233 0
235 -237 78 0
-235 -237 -78 0
235 237 -78 -233 0
-235 237 78 -233 0
-238 235 0
-238 233 0
-238 -78 0
238 -235 78 -233 0
239 235 -233 0
239 -235 233 0
-239 235 233 0
-239 -235 -233 0
-240 235 0
-240 233 0
240 -235 -233 0
241 87 -229 0
241 -87 229 0
-241 87 229 0
-241 -87 -229 0
242 91 -169 0
242 -91 169 0
-242 91 169 0
-242 -91 -169 0
-243 87 0
-243 169 0
-243 229 -91 0
-243 -229 91 0
243 -87 229 91 -169 0
243 -87 -229 -91 -169 0
244 -242 0
-244 242 0
245 87 -242 0
245 -87 242 0
-245 87 242 0
-245 -87 -242 0
-246 87 0
-246 242 0
246 -87 -242 0
247 -87 245 0
-247 87 245 0
-248 245 0
247 -248 -87 0
-247 -248 87 0
247 248 87 -245 0
-247 248 -87 -245 0
-249 245 0
247 -249 87 0
-247 -249 -87 0
247 249 -87 -245 0
-247 249 87 -245 0
-250 247 0
-250 245 0
-250 -87 0
250 -247 87 -245 0
251 247 -245 0
251 -247 245 0
-251 247 245 0
-251 -247 -245 0
-252 247 0
-252 245 0
252 -247 -245 0
253 96 -241 0
253 -96 241 0
-253 96 241 0
-253 -96 -241 0
254 100 -169 0
254 -100 169 0
-254 100 169 0
-254 -100 -169 0
-255 96 0
-255 169 0
-255 241 -100 0
-255 -241 100 0
255 -96 241 100 -169 0
255 -96 -241 -100 -169 0
256 96 -254 0
256 -96 254 0
-256 96 254 0
-256 -96 -254 0
-257 96 0
-257 254 0
257 -96 -254 0
258 -96 256 0
-258 96 256 0
-259 256 0
258 -259 -96 0
-258 -259 96 0
258 259 96 -256 0
-258 259 -96 -256 0
-260 256 0
258 -260 96 0
-258 -260 -96 0
258 260 -96 -256 0
-258 260 96 -256 0
-261 258 0
-261 256 0
-261 -96 0
261 -258 96 -256 0
262 258 -256 0
262 -258 256 0
-262 258 256 0
-262 -258 -256 0
-263 258 0
-263 256 0
263 -258 -256 0
264 104 -253 0
264 -104 253 0
-264 104 253 0
-264 -104 -253 0
265 108 -169 0
265 -108 169 0
-265 108 169 0
-265 -108 -169 0
-266 104 0
-266 169 0
-266 253 -108 0
-266 -253 108 0
266 -104 253 108 -169 0
266 -104 -253 -108 -169 0
267 -265 0
-267 265 0
268 104 -265 0
268 -104 265 0
-268 104 265 0
-268 -104 -265 0
-269 104 0
-269 265 0
269 -104 -265 0
270 -104 268 0
-270 104 268 0
-271 268 0
270 -271 -104 0
-270 -271 104 0
270 271 104 -268 0
-270 271 -104 -268 0
-272 268 0
270 -272 104 0
-270 -272 -104 0
270 272 -104 -268 0
-270 272 104 -268 0
-273 270 0
-273 268 0
-273 -104 0
273 -270 104 -268 0
274 270 -268 0
274 -270 268 0
-274 270 268 0
-274 -270 -268 0
-275 270 0
-275 268 0
275 -270 -268 0
276 113 -264 0
276 -113 264 0
-276 113 264 0
-276 -113 -264 0
277 117 -169 0
277 -117 169 0
-277 117 169 0
-277 -117 -169 0
-278 113 0
-278 169 0
-278 264 -117 0
-278 -264 117 0
278 -113 264 117 -169 0
278 -113 -264 -117 -169 0
279 -277 0
-279 277 0
280 113 -277 0
280 -113 277 0
-280 113 277 0
-280 -113 -277 0
-281 113 0
-281 277 0
281 -113 -277 0
282 -113 280 0
-282 113 280 0
-283 280 0
282 -283 -113 0
-282 -283 113 0
282 283 113 -280 0
-282 283 -113 -280 0
-284 280 0
282 -284 113 0
-282 -284 -113 0
282 284 -113 -280 0
-282 284 113 -280 0
-285 282 0
-285 280 0
-285 -113 0
285 -282 113 -280 0
286 282 -280 0
286 -282 280 0
-286 282 280 0
-286 -282 -280 0
-287 282 0
-287 280 0
287 -282 -280 0
288 122 -276 0
288 -122 276 0
-288 122 276 0
-288 -122 -276 0
289 126 -169 0
289 -126 169 0
-289 126 169 0
-289 -126 -169 0
-290 122 0
-290 169 0
-290 276 -126 0
-290 -276 126 0
290 -122 276 126 -169 0
290 -122 -276 -126 -169 0
291 122 -289 0
291 -122 289 0
-291 122 289 0
-291 -122 -289 0
-292 122 0
-292 289 0
292 -122 -289 0
293 -122 291 0
-293 122 291 0
-294 291 0
293 -294 -122 0
-293 -294 122 0
293 294 122 -291 0
-293 294 -122 -291 0
-295 291 0
293 -295 122 0
-293 -295 -122 0
293 295 -122 -291 0
-293 295 122 -291 0
-296 293 0
-296 291 0
-296 -122 0
296 -293 122 -291 0
297 293 -291 0
297 -293 291 0
-297 293 291 0
-297 -293 -291 0
-298 293 0
-298 291 0
298 -293 -291 0
299 130 -288 0
299 -130 288 0
-299 130 288 0
-299 -130 -288 0
300 134 -169 0
300 -134 169 0
-300 134 169 0
-300 -134 -169 0
-301 130 0
-301 169 0
-301 288 -134 0
-301 -288 134 0
301 -130 288 134 -169 0
301 -130 -288 -134 -169 0
302 -300 0
-302 300 0
303 130 -300 0
303 -130 300 0
-303 130 300 0
-303 -130 -300 0
-304 130 0
-304 300 0
304 -130 -300 0
305 -130 303 0
-305 130 303 0
-306 303 0
305 -306 -130 0
-305 -306 130 0
305 306 130 -303 0
-305 306 -130 -303 0
-307 303 0
305 -307 130 0
-305 -307 -130 0
305 307 -130 -303 0
-305 307 130 -303 0
-308 305 0
-308 303 0
-308 -130 0
308 -305 130 -303 0
309 305 -303 0
309 -305 303 0
-309 305 303 0
-309 -305 -303 0
-310 305 0
-310 303 0
310 -305 -303 0
311 139 -299 0
311 -139 299 0
-311 139 299 0
-311 -139 -299 0
312 143 -169 0
312 -143 169 0
-312 143 169 0
-312 -143 -169 0
-313 139 0
-313 169 0
-313 299 -143 0
-313 -299 143 0
313 -139 299 143 -169 0
313 -139 -299 -143 -169 0
314 -312 0
-314 312 0
315 139 -312 0
315 -139 312 0
-315 139 312 0
-315 -139 -312 0
-316 139 0
-316 312 0
316 -139 -312 0
317 -139 315 0
-317 139 315 0
-318 315 0
317 -318 -139 0
-317 -318 139 0
317 318 139 -315 0
-317 318 -139 -315 0
-319 315 0
317 -319 139 0
-317 -319 -139 0
317 319 -139 -315 0
-317 319 139 -315 0
-320 317 0
-320 315 0
-320 -139 0
320 -317 139 -315 0
321 317 -315 0
321 -317 315 0
-321 317 315 0
-321 -317 -315 0
-322 317 0
-322 315 0
322 -317 -315 0
323 148 -311 0
323 -148 311 0
-323 148 311 0
-323 -148 -311 0
324 152 -169 0
324 -152 169 0
-324 152 169 0
-324 -152 -169 0
-325 148 0
-325 169 0
-325 311 -152 0
-325 -311 152 0
325 -148 311 152 -169 0
325 -148 -311 -152 -169 0
326 148 -324 0
326 -148 324 0
-326 148 324 0
-326 -148 -324 0
-327 148 0
-327 324 0
327 -148 -324 0
328 -148 326 0
-328 148 326 0
-329 326 0
328 -329 -148 0
-328 -329 148 0
328 329 148 -326 0
-328 329 -148 -326 0
-330 326 0
328 -330 148 0
-328 -330 -148 0
328 330 -148 -326 0
-328 330 148 -326 0
-331 328 0
-331 326 0
-331 -148 0
331 -328 148 -326 0
332 328 -326 0
332 -328 326 0
-332 328 326 0
-332 -328 -326 0
-333 328 0
-333 326 0
333 -328 -326 0
334 156 -323 0
334 -156 323 0
-334 156 323 0
-334 -156 -323 0
335 160 -169 0
335 -160 169 0
-335 160 169 0
-335 -160 -169 0
-336 156 0
-336 169 0
-336 323 -160 0
-336 -323 160 0
336 -156 323 160 -169 0
336 -156 -323 -160 -169 0
337 156 -335 0
337 -156 335 0
-337 156 335 0
-337 -156 -335 0
-338 156 0
-338 335 0
338 -156 -335 0
339 -156 337 0
-339 156 337 0
-340 337 0
339 -340 -156 0
-339 -340 156 0
339 340 156 -337 0
-339 340 -156 -337 0
-341 337 0
339 -341 156 0
-339 -341 -156 0
339 341 -156 -337 0
-339 341 156 -337 0
-342 339 0
-342 337 0
-342 -156 0
342 -339 156 -337 0
343 339 -337 0
343 -339 337 0
-343 339 337 0
-343 -339 -337 0
-344 339 0
-344 337 0
344 -339 -337 0
-177 0
-189 0
-193 0
-200 0
-204 0
-212 0
-216 0
-223 0
-227 0
-235 0
-239 0
-247 0
-251 0
-258 0
-262 0
-270 0
-274 0
-282 0
-286 0
-293 0
-297 0
-305 0
-309 0
-317 0
-321 0
-328 0
-332 0
-339 0
-343 0
-334 0
-169 0
